(set-info :source  loris-7.ddns.comp.nus.edu.sg/~project/hip/) 
;Variables declarations
(declare-fun bhr_12680 () Int)
(declare-fun Anon_12679 () Int)
(declare-fun nr_12678 () Int)
(declare-fun bhl_12676 () Int)
(declare-fun Anon_12675 () Int)
(declare-fun nl_12674 () Int)
(declare-fun na () Int)
(declare-fun r_12677 () Int)
(declare-fun tmp_12658 () Int)
(declare-fun l_12673 () Int)
(declare-fun v_12672 () Int)
(declare-fun v_int_280_12657 () Int)
(declare-fun v_int_280_12656 () Int)
(declare-fun flted_171_12655 () Int)
(declare-fun flted_171_12654 () Int)
(declare-fun flted_171_12653 () Int)
(declare-fun nd () Int)
(declare-fun nc () Int)
(declare-fun nc_11914 () Int)
(declare-fun nb_11913 () Int)
(declare-fun h_11915 () Int)
(declare-fun na_11912 () Int)
(declare-fun v_bool_268_3692_primed () Int)
(declare-fun bh () Int)
(declare-fun cl () Int)
(declare-fun Anon_11746 () Int)
(declare-fun n () Int)
(declare-fun flted_13_11742 () Int)
(declare-fun flted_262_11754 () Int)
(declare-fun nb () Int)
(declare-fun nl_11745 () Int)
(declare-fun bhl_11747 () Int)
(declare-fun a_primed () Int)
(declare-fun a () Int)
(declare-fun c_primed () Int)
(declare-fun c () Int)
(declare-fun flted_262_11756 () Int)
(declare-fun flted_262_11755 () Int)
(declare-fun flted_262_11753 () Int)
(declare-fun h () Int)
(declare-fun flted_262_11752 () Int)
(declare-fun b () Int)
(declare-fun nr_11749 () Int)
(declare-fun bhr_11751 () Int)
(declare-fun Anon_11750 () Int)
(declare-fun cl_11774 () Int)
(declare-fun v_bool_270_3675_primed () Int)
(declare-fun bhr_11900 () Int)
(declare-fun bhl_11897 () Int)
(declare-fun bh_11775 () Int)
(declare-fun n_11773 () Int)
(declare-fun nr_11899 () Int)
(declare-fun nl_11896 () Int)
(declare-fun flted_12_11891 () Int)
(declare-fun flted_12_11892 () Int)
(declare-fun flted_12_11893 () Int)
(declare-fun b_primed () Int)
(declare-fun r_11748 () Int)
;Relations declarations
;Axioms assertions
;Antecedent
(assert (= bhr_12680 flted_171_12655))
(assert (= Anon_12679 flted_171_12654))
(assert (= nr_12678 flted_171_12653))
(assert (= bhl_12676 flted_262_11755))
(assert (= Anon_12675 flted_262_11756))
(assert (= nl_12674 na))
(assert (= r_12677 tmp_12658))
(assert (= l_12673 a_primed))
(assert (= v_12672 v_int_280_12656))
(assert (= v_int_280_12657 0))
(assert (= v_int_280_12656 0))
(assert (or (and (and (and (and (and (and (and (and (and (and (and (exists ((flted_168_280 Int)) (and (<= 0 flted_168_280) (<= flted_168_280 1))) (exists ((flted_168_279 Int)) (and (<= 0 flted_168_279) (<= flted_168_279 1)))) (exists ((flted_168_278 Int)) (and (<= 0 flted_168_278) (<= flted_168_278 1)))) (exists ((flted_168_277 Int)) (and (<= 0 flted_168_277) (<= flted_168_277 1)))) (exists ((h_283 Int)) (<= 1 h_283))) (exists ((h_282 Int)) (<= 1 h_282))) (exists ((h_281 Int)) (<= 1 h_281))) (<= 0 na_11912)) (<= 1 h_11915)) (<= 0 nb_11913)) (<= 0 nc_11914)) (<= 0 nd)) (and (and (and (and (and (and (and (and (and (and (and (exists ((flted_169_276 Int)) (and (<= 0 flted_169_276) (<= flted_169_276 1))) (exists ((flted_169_275 Int)) (and (<= 0 flted_169_275) (<= flted_169_275 1)))) (exists ((flted_169_274 Int)) (and (<= 0 flted_169_274) (<= flted_169_274 1)))) (exists ((flted_169_273 Int)) (and (<= 0 flted_169_273) (<= flted_169_273 1)))) (exists ((h_286 Int)) (<= 1 h_286))) (exists ((h_285 Int)) (<= 1 h_285))) (exists ((h_284 Int)) (<= 1 h_284))) (<= 0 na_11912)) (<= 1 h_11915)) (<= 0 nb_11913)) (<= 0 nc_11914)) (<= 0 nd))))
(assert (= flted_171_12655 (+ 1 h_11915)))
(assert (= flted_171_12654 1))
(assert (= flted_171_12653 (+ (+ (+ (+ 3 nc_11914) na_11912) nb_11913) nd)))
(assert (<= cl 1))
(assert (<= 0 cl))
(assert (<= 1 bh))
(assert (<= 0 n))
(assert (<= flted_12_11892 1))
(assert (<= 0 flted_12_11892))
(assert (<= 1 bhl_11897))
(assert (<= 0 nl_11896))
(assert (<= flted_12_11891 1))
(assert (<= 0 flted_12_11891))
(assert (<= 1 bhr_11900))
(assert (<= 0 nr_11899))
(assert (<= flted_262_11752 1))
(assert (<= 0 flted_262_11752))
(assert (<= 1 h))
(assert (<= 0 nc))
(assert (= nd nc))
(assert (= nc_11914 nr_11899))
(assert (= nb_11913 nl_11896))
(assert (= h_11915 bh))
(assert (= na_11912 n))
(assert (> v_bool_268_3692_primed 0))
(assert (= cl 0))
(assert (<= Anon_11746 1))
(assert (<= 0 Anon_11746))
(assert (<= 1 bhl_11747))
(assert (<= 0 nl_11745))
(assert (= bh bhl_11747))
(assert (= cl Anon_11746))
(assert (= n nl_11745))
(assert (= flted_13_11742 0))
(assert (= flted_262_11754 0))
(assert (= nb (+ (+ nr_11749 1) nl_11745)))
(assert (= bhl_11747 bhr_11751))
(assert (= flted_262_11753 (+ bhl_11747 1)))
(assert (= a_primed a))
(assert (= b_primed b))
(assert (= c_primed c))
(assert (= flted_262_11756 0))
(assert (= flted_262_11755 (+ 1 h)))
(assert (= flted_262_11753 (+ 1 h)))
(assert (= flted_262_11752 0))
(assert (> b 0))
(assert (= n_11773 nr_11749))
(assert (= cl_11774 Anon_11750))
(assert (= bh_11775 bhr_11751))
(assert (<= 0 nr_11749))
(assert (<= 1 bhr_11751))
(assert (<= 0 Anon_11750))
(assert (<= Anon_11750 1))
(assert (= cl_11774 1))
(assert (<= 0 n_11773))
(assert (<= 1 bh_11775))
(assert (<= 0 cl_11774))
(assert (<= cl_11774 1))
(assert (not (> v_bool_270_3675_primed 0)))
(assert (= bhr_11900 bh_11775))
(assert (= bhl_11897 bh_11775))
(assert (= n_11773 (+ (+ nr_11899 1) nl_11896)))
(assert (= flted_12_11891 0))
(assert (= flted_12_11892 0))
(assert (= flted_12_11893 1))
(assert (= b_primed 1))
(assert (= r_11748 2))
(assert (not (= b_primed r_11748)))
;Negation of Consequence
(assert (not false))
(check-sat)